126
39
57
61
118
125
132
140
141
150
153
154
163
167
185
207
212
215
218
236
251
260
281
283
305
332
341
344
352
356
359
372
387
396
401
402
408
432
451
463
468
482
499
512
517
550
584
598
604
608
612
622
642
652
668
674
675
689
705
754
797
803
818
842
843
852
868
869
873
876
893
938
953
981
983
997
1001
1020
1021
1029
1040
1046
1071
1077
1093
1113
1130
1149
1159
1162
1181
1189
1200
1205
1225
1255
1273
1275
1276
1284
1296
1303
1310
1313
1315
1327
1334
1342
1344
1346
1357
1361
1362
1370
1406
1409
1410
1423
1424
1427
1448
1507
1514
1521
1531
1535
1599
27
21
23
25
42
53
67
131
138
159
174
186
187
197
199
203
212
234
240
241
251
266
268
273
282
285
356
374
